TIME 50
2770
23374
3844
23374
5379
23374
5725
23374
5029
23374
5162
23374
5352
23374
4678
23374
3166
23374
5480
23374
TIME 100
3902
23374
2692
23374
5896
23374
3245
23374
6180
23374
4054
23374
6365
23374
6299
23374
3793
23374
6283
23374
TIME 150
5403
23374
6623
23374
7097
23374
5841
23374
4175
23374
7185
23374
6880
23374
6070
23374
6132
23374
5129
23374
TIME 200
5518
23374
5611
23374
7112
23374
7453
23374
3249
23374
6876
23374
5375
23374
